(declare-fun ay () Real)
(declare-fun c_scale () Real)
(declare-fun ax () Real)
(declare-fun b_scale () Real)
(declare-fun k!0 () Int)
(declare-fun Ax () Real)
(declare-fun Bx () Real)
(declare-fun Cx () Real)
(declare-fun Px () Real)
(declare-fun Py () Real)
(declare-fun Qx () Real)
(declare-fun Qy () Real)
(declare-fun Rx () Real)
(declare-fun Ry () Real)
(assert (= (* (- (* ax c_scale) ax) (- (* ay b_scale) ay))
   (* (- (* ax b_scale) ax) (- (* ay c_scale) ay))))
(assert (= (* (- Cx Ax) (to_real (- k!0 k!0))) (* (- Bx Ax) (to_real (- k!0 k!0)))))
(assert (= (* (- Bx ax) (- Py ay)) (* (- Px ax) (- (to_real k!0) ay))))
(assert (= (* (- (* ax b_scale) Ax) (- Py (to_real k!0)))
   (* (- Px Ax) (- (* ay b_scale) (to_real k!0)))))
(assert (= (* (- Cx ax) (- Qy ay)) (* (- Qx ax) (- (to_real k!0) ay))))
(assert (= (* (- (* ax c_scale) Ax) (- Qy (to_real k!0)))
   (* (- Qx Ax) (- (* ay c_scale) (to_real k!0)))))
(assert (= (* (- Cx (* ax b_scale)) (- Ry (* ay b_scale)))
   (* (- Rx (* ax b_scale)) (- (to_real k!0) (* ay b_scale)))))
(assert (= (* (- (* ax c_scale) Bx) (- Ry (to_real k!0)))
   (* (- Rx Bx) (- (* ay c_scale) (to_real k!0)))))
(assert (not (= (* (- Rx Px) (- Qy Py)) (* (- Qx Px) (- Ry Py)))))
(assert (or (distinct ax (* ax b_scale)) (distinct ay (* ay b_scale))))
(assert (or (distinct ax (* ax c_scale)) (distinct ay (* ay c_scale))))
(assert (or (distinct ax Ax) (distinct ay (to_real k!0))))
(assert (or (distinct ax Bx) (distinct ay (to_real k!0))))
(assert (or (distinct ax Cx) (distinct ay (to_real k!0))))
(assert (or (distinct (* ax b_scale) ax) (distinct (* ay b_scale) ay)))
(assert (or (distinct (* ax b_scale) (* ax c_scale))
    (distinct (* ay b_scale) (* ay c_scale))))
(assert (or (distinct (* ax b_scale) Ax) (distinct (* ay b_scale) (to_real k!0))))
(assert (or (distinct (* ax b_scale) Bx) (distinct (* ay b_scale) (to_real k!0))))
(assert (or (distinct (* ax b_scale) Cx) (distinct (* ay b_scale) (to_real k!0))))
(assert (or (distinct (* ax c_scale) ax) (distinct (* ay c_scale) ay)))
(assert (or (distinct (* ax c_scale) (* ax b_scale))
    (distinct (* ay c_scale) (* ay b_scale))))
(assert (or (distinct (* ax c_scale) Ax) (distinct (* ay c_scale) (to_real k!0))))
(assert (or (distinct (* ax c_scale) Bx) (distinct (* ay c_scale) (to_real k!0))))
(assert (or (distinct (* ax c_scale) Cx) (distinct (* ay c_scale) (to_real k!0))))
(assert (or (distinct Ax ax) (distinct (to_real k!0) ay)))
(assert (or (distinct Ax (* ax b_scale)) (distinct (to_real k!0) (* ay b_scale))))
(assert (or (distinct Ax (* ax c_scale)) (distinct (to_real k!0) (* ay c_scale))))
(assert (or (distinct Ax Bx) (distinct k!0 k!0)))
(assert (or (distinct Ax Cx) (distinct k!0 k!0)))
(assert (or (distinct Bx ax) (distinct (to_real k!0) ay)))
(assert (or (distinct Bx (* ax b_scale)) (distinct (to_real k!0) (* ay b_scale))))
(assert (or (distinct Bx (* ax c_scale)) (distinct (to_real k!0) (* ay c_scale))))
(assert (or (distinct Bx Ax) (distinct k!0 k!0)))
(assert (or (distinct Bx Cx) (distinct k!0 k!0)))
(assert (or (distinct Cx ax) (distinct (to_real k!0) ay)))
(assert (or (distinct Cx (* ax b_scale)) (distinct (to_real k!0) (* ay b_scale))))
(assert (or (distinct Cx (* ax c_scale)) (distinct (to_real k!0) (* ay c_scale))))
(assert (or (distinct Cx Ax) (distinct k!0 k!0)))
(assert (or (distinct Cx Bx) (distinct k!0 k!0)))
(check-sat)
